NAME: a280
TYPE: MST
DIMENSION: 280
MST_SECTION
171 172
7 8
8 9
8 10
10 11
11 12
12 13
13 14
13 15
17 18
18 19
19 20
20 21
23 24
22 25
23 25
22 26
26 27
27 28
30 31
31 32
35 36
37 38
38 39
39 40
40 41
41 42
42 43
44 45
45 46
46 47
47 48
48 49
49 50
50 51
49 52
48 53
47 54
46 55
45 56
44 57
57 58
44 59
43 60
60 61
62 63
64 65
65 66
68 69
67 70
70 71
71 72
72 73
73 74
74 75
75 76
75 77
77 78
80 81
81 82
82 83
83 84
65 85
84 85
84 87
90 91
91 92
93 94
94 95
95 96
94 97
93 98
100 101
101 102
102 103
103 104
104 105
105 106
106 107
104 108
89 109
108 110
110 111
88 112
87 113
111 114
113 114
114 115
86 116
115 117
61 118
117 118
119 120
120 121
121 122
122 123
123 124
30 125
124 125
126 127
21 128
127 128
128 129
21 130
20 131
19 132
18 133
134 135
135 136
136 137
137 138
138 139
139 140
140 141
141 142
142 143
143 144
144 145
143 146
142 147
139 148
151 152
153 155
154 155
152 156
153 156
119 157
157 158
158 159
159 160
161 162
162 163
163 164
164 165
167 168
170 171
106 173
160 175
161 175
151 177
176 177
176 181
180 181
181 182
182 183
183 184
184 185
185 187
186 187
188 189
189 190
194 195
195 196
194 197
197 198
145 199
198 199
144 200
196 201
207 208
208 209
207 210
210 211
207 212
212 213
211 214
214 215
213 216
216 217
215 218
218 219
217 220
220 221
219 222
224 225
225 226
226 227
227 228
228 229
229 230
231 232
232 233
233 234
234 235
233 236
232 237
231 238
238 239
239 240
240 241
242 243
241 244
240 245
231 246
230 251
250 251
209 252
208 253
253 254
252 255
255 256
254 257
257 258
258 259
259 260
260 261
138 266
265 266
137 267
136 268
135 269
134 270
16 271
271 272
272 273
273 274
274 275
275 276
63 64
85 86
83 88
81 89
36 37
79 80
89 90
139 149
101 169
169 170
151 178
179 180
200 202
206 207
241 242
244 247
247 250
278 279
2 280
5 6
4 277
3 280
276 277
3 279
28 29
66 67
173 174
202 203
203 204
204 205
205 206
223 224
248 249
249 250
261 262
262 263
263 264
29 31
67 68
125 126
166 167
190 191
92 93
99 100
187 188
4 279
33 34
59 63
191 192
133 134
129 154
165 166
168 169
31 33
6 7
6 276
16 17
222 223
149 150
193 194
1 280
EOF
